c preprocessed version of graph03-wpp, 70 vertices, 281 edges
p td 70 281
0 1
0 2
0 38
0 35
0 37
52 0
1 2
1 35
1 62
1 37
54 1
2 3
2 38
2 37
2 35
2 10
52 2
3 4
28 3
3 27
42 3
5 4
4 19
28 4
31 4
27 4
5 6
16 5
5 20
5 37
5 36
5 63
24 5
45 5
49 5
6 7
6 16
6 63
6 24
48 6
21 6
7 8
7 9
7 10
22 7
56 7
21 7
8 9
8 10
22 8
21 8
45 8
9 10
22 9
48 9
21 9
11 10
22 10
56 10
33 10
21 10
61 10
11 12
11 31
11 58
11 62
11 30
57 11
13 12
31 12
12 30
12 58
57 12
14 13
51 13
50 13
14 15
14 51
50 14
16 15
15 26
15 62
15 25
18 15
60 15
16 17
16 20
16 19
16 23
16 55
16 56
16 32
63 16
24 16
21 16
18 17
26 17
63 17
17 25
17 62
18 19
18 34
18 44
18 26
18 62
18 25
18 46
18 45
43 18
20 19
21 19
43 19
21 20
44 20
41 20
21 22
34 21
21 48
21 33
47 21
23 22
32 22
55 22
56 22
50 22
46 22
24 23
32 23
23 37
23 30
55 23
56 23
24 25
63 24
26 25
62 25
60 25
26 27
26 62
28 27
39 27
29 28
29 30
40 29
39 29
29 50
49 29
31 30
38 30
35 30
58 30
57 30
61 30
32 31
36 31
31 58
33 32
32 55
56 32
34 33
33 48
33 47
46 33
34 35
34 48
34 47
44 34
34 45
34 43
34 46
36 35
38 35
37 36
48 36
45 36
49 36
38 37
39 37
45 37
49 37
40 39
39 50
52 39
49 39
41 40
40 50
49 40
41 42
54 41
41 57
53 41
42 43
54 42
57 42
53 42
49 42
44 43
45 43
46 43
44 45
44 46
54 44
46 45
49 45
46 47
48 47
49 50
49 62
49 58
49 53
49 59
49 52
49 61
60 49
50 51
59 50
52 51
53 52
59 52
52 61
52 60
53 54
53 57
53 59
53 60
53 61
54 55
54 57
56 55
57 58
59 60
59 61
61 60
64 32
64 67
64 66
64 65
64 53
64 59
64 68
65 3
65 4
65 8
65 27
65 28
65 67
65 66
65 68
66 69
66 3
66 40
66 67
66 68
67 69
67 28
67 37
67 47
67 63
67 68
68 69
68 9
68 10
68 13
68 14
68 16
68 20
68 25
68 41
68 42
68 51
68 50
68 62
68 54
68 57
68 53
69 64
69 65
69 13
69 14
69 29
69 51
